9726.13,62.53,77.57
11137.03,54.61,67.75
10768.52,56.48,70.06
11058.22,55.0,68.23
10374.19,58.63,72.73
9688.9,62.77,77.87
9519.55,63.89,79.26
10381.07,58.59,72.68
9762.6,62.3,77.28
10257.05,59.3,73.56
10084.92,60.31,74.81
11533.32,52.74,65.42
11223.73,54.19,67.22
10246.19,59.36,73.64
10650.64,57.11,70.84
10403.63,58.46,72.52
10022.43,60.69,75.28
10017.11,60.72,75.32
9717.8,62.59,77.64
10645.0,57.14,70.88
